50
0 1 0.42 0.27
0 2 0.33 0.22
0 3 0.4 0.19
0 4 0.58 0.22
0 5 0.32 0.22
0 6 0.32 0.2
0 7 0.42 0.2
0 8 0.57 0.15
0 9 0.6 0.25
0 10 0.4 0.2
0 11 0.54 0.29
0 12 0.46 0.21
0 13 0.59 0.08
0 14 0.66 0.29
0 15 0.42 0.14
0 16 0.5 0.27
0 17 0.58 0.19
0 18 0.63 0.26
0 19 0.55 0.2
0 20 0.6 0.26
0 21 0.62 0.31
0 22 0.65 0.23
0 23 0.43 0.24
0 24 0.2 0.14
0 25 0.5 0.19
0 26 0.52 0.16
0 27 0.64 0.24
0 28 0.44 0.26
0 29 0.58 0.22
0 30 0.32 0.14
0 31 0.71 0.3
0 32 0.5 0.27
0 33 0.42 0.26
0 34 0.66 0.24
0 35 0.52 0.18
0 36 0.87 0.22
0 37 0.54 0.31
0 38 0.66 0.16
0 39 0.46 0.2
0 40 0.64 0.3
0 41 0.71 0.19
0 42 0.68 0.25
0 43 0.6 0.19
0 44 0.67 0.24
0 45 0.6 0.27
0 46 0.64 0.15
0 47 0.58 0.24
0 48 0.66 0.24
0 49 0.46 0.2
1 2 0.74 0.2
1 3 0.52 0.26
1 4 0.68 0.32
1 5 0.4 0.24
1 6 0.47 0.22
1 7 0.54 0.24
1 8 0.62 0.14
1 9 0.18 0.04
1 10 0.66 0.3
1 11 0.54 0.22
1 12 0.6 0.24
1 13 0.66 0.19
1 14 0.55 0.17
1 15 0.81 0.13
1 16 0.58 0.2
1 17 0.72 0.16
1 18 0.38 0.13
1 19 0.54 0.19
1 20 0.82 0.14
1 21 0.7 0.24
1 22 0.42 0.04
1 23 0.59 0.27
1 24 0.62 0.28
1 25 0.54 0.25
1 26 0.6 0.15
1 27 0.59 0.28
1 28 0.52 0.26
1 29 0.63 0.18
1 30 0.6 0.32
1 31 0.61 0.15
1 32 0.61 0.23
1 33 0.6 0.26
1 34 0.47 0.26
1 35 0.65 0.2
1 36 0.58 0.18
1 37 0.56 0.2
1 38 0.56 0.14
1 39 0.43 0.2
1 40 0.69 0.23
1 41 0.59 0.25
1 42 0.62 0.06
1 43 0.57 0.1
1 44 0.43 0.06
1 45 0.68 0.21
1 46 0.38 0.19
1 47 0.41 0.16
1 48 0.49 0.14
1 49 0.4 0.24
2 3 0.7 0.17
2 4 0.64 0.32
2 5 0.52 0.24
2 6 0.41 0.2
2 7 0.56 0.18
2 8 0.64 0.26
2 9 0.62 0.24
2 10 0.73 0.2
2 11 0.56 0.26
2 12 0.46 0.2
2 13 0.62 0.18
2 14 0.59 0.22
2 15 0.71 0.12
2 16 0.54 0.24
2 17 0.76 0.17
2 18 0.76 0.24
2 19 0.65 0.06
2 20 0.53 0.19
2 21 0.58 0.2
2 22 0.54 0.21
2 23 0.52 0.26
2 24 0.53 0.12
2 25 0.5 0.16
2 26 0.62 0.14
2 27 0.61 0.18
2 28 0.4 0.24
2 29 0.26 0.14
2 30 0.65 0.26
2 31 0.38 0.12
2 32 0.38 0.17
2 33 0.75 0.2
2 34 0.48 0.24
2 35 0.32 0.18
2 36 0.79 0.3
2 37 0.41 0.18
2 38 0.46 0.26
2 39 0.78 0.2
2 40 0.66 0.26
2 41 0.55 0.16
2 42 0.72 0.23
2 43 0.6 0.22
2 44 0.34 0.18
2 45 0.5 0.18
2 46 0.51 0.26
2 47 0.61 0.22
2 48 0.74 0.31
2 49 0.42 0.14
3 4 0.58 0.26
3 5 0.56 0.25
3 6 0.35 0.18
3 7 0.42 0.11
3 8 0.7 0.27
3 9 0.7 0.29
3 10 0.61 0.17
3 11 0.56 0.21
3 12 0.56 0.15
3 13 0.42 0.14
3 14 0.56 0.16
3 15 0.53 0.2
3 16 0.56 0.23
3 17 0.58 0.17
3 18 0.68 0.24
3 19 0.47 0.23
3 20 0.75 0.22
3 21 0.61 0.24
3 22 0.68 0.29
3 23 0.47 0.28
3 24 0.2 0.05
3 25 0.5 0.11
3 26 0.7 0.2
3 27 0.6 0.15
3 28 0.62 0.21
3 29 0.57 0.23
3 30 0.72 0.21
3 31 0.39 0.29
3 32 0.53 0.26
3 33 0.64 0.24
3 34 0.66 0.22
3 35 0.52 0.2
3 36 0.64 0.22
3 37 0.76 0.23
3 38 0.37 0.12
3 39 0.54 0.16
3 40 0.29 0.28
3 41 0.64 0.11
3 42 0.82 0.27
3 43 0.55 0.23
3 44 0.46 0.2
3 45 0.46 0.12
3 46 0.68 0.15
3 47 0.5 0.21
3 48 0.28 0.18
3 49 0.78 0.11
4 5 0.42 0.1
4 6 0.5 0.15
4 7 0.47 0.3
4 8 0.48 0.28
4 9 0.71 0.31
4 10 0.8 0.25
4 11 0.74 0.25
4 12 0.74 0.26
4 13 0.56 0.29
4 14 0.76 0.18
4 15 0.45 0.23
4 16 0.74 0.31
4 17 0.54 0.18
4 18 0.73 0.27
4 19 0.54 0.26
4 20 0.72 0.22
4 21 0.48 0.21
4 22 0.72 0.3
4 23 0.57 0.25
4 24 0.38 0.25
4 25 0.59 0.3
4 26 0.56 0.21
4 27 0.8 0.22
4 28 0.54 0.16
4 29 0.67 0.21
4 30 0.56 0.26
4 31 0.71 0.29
4 32 0.7 0.17
4 33 0.82 0.36
4 34 0.42 0.19
4 35 0.7 0.17
4 36 0.44 0.28
4 37 0.8 0.21
4 38 0.54 0.24
4 39 0.76 0.22
4 40 0.5 0.3
4 41 0.7 0.3
4 42 0.94 0.29
4 43 0.4 0.24
4 44 0.46 0.29
4 45 0.72 0.14
4 46 0.42 0.26
4 47 0.74 0.33
4 48 0.52 0.26
4 49 0.7 0.19
5 6 0.61 0.12
5 7 0.58 0.26
5 8 0.64 0.18
5 9 0.58 0.27
5 10 0.58 0.17
5 11 0.45 0.18
5 12 0.4 0.24
5 13 0.63 0.19
5 14 0.34 0.16
5 15 0.71 0.13
5 16 0.74 0.28
5 17 0.48 0.08
5 18 0.48 0.17
5 19 0.39 0.19
5 20 0.5 0.12
5 21 0.3 0.11
5 22 0.5 0.2
5 23 0.49 0.22
5 24 0.38 0.2
5 25 0.68 0.22
5 26 0.64 0.11
5 27 0.61 0.12
5 28 0.12 0.06
5 29 0.46 0.18
5 30 0.6 0.24
5 31 0.58 0.26
5 32 0.52 0.07
5 33 0.67 0.26
5 34 0.64 0.14
5 35 0.52 0.14
5 36 0.55 0.27
5 37 0.52 0.11
5 38 0.36 0.14
5 39 0.76 0.12
5 40 0.62 0.26
5 41 0.48 0.22
5 42 0.52 0.22
5 43 0.32 0.14
5 44 0.56 0.22
5 45 0.52 0.2
5 46 0.32 0.26
5 47 0.5 0.23
5 48 0.38 0.16
5 49 0.42 0.16
6 7 0.34 0.2
6 8 0.7 0.24
6 9 0.65 0.26
6 10 0.56 0.22
6 11 0.47 0.1
6 12 0.56 0.14
6 13 0.62 0.23
6 14 0.8 0.18
6 15 0.54 0.17
6 16 0.74 0.16
6 17 0.57 0.18
6 18 0.6 0.25
6 19 0.54 0.23
6 20 0.78 0.24
6 21 0.6 0.14
6 22 0.48 0.18
6 23 0.12 0.1
6 24 0.5 0.17
6 25 0.56 0.17
6 26 0.59 0.15
6 27 0.67 0.14
6 28 0.58 0.12
6 29 0.58 0.06
6 30 0.54 0.27
6 31 0.56 0.14
6 32 0.63 0.19
6 33 0.36 0.28
6 34 0.45 0.04
6 35 0.64 0.02
6 36 0.6 0.19
6 37 0.62 0.22
6 38 0.53 0.17
6 39 0.57 0.18
6 40 0.64 0.2
6 41 0.66 0.17
6 42 0.88 0.16
6 43 0.71 0.24
6 44 0.57 0.18
6 45 0.43 0.22
6 46 0.44 0.2
6 47 0.77 0.24
6 48 0.5 0.21
6 49 0.48 0.18
7 8 0.58 0.18
7 9 0.36 0.25
7 10 0.54 0.18
7 11 0.43 0.22
7 12 0.58 0.16
7 13 0.28 0.2
7 14 0.77 0.24
7 15 0.76 0.23
7 16 0.58 0.24
7 17 0.6 0.18
7 18 0.26 0.14
7 19 0.72 0.24
7 20 0.76 0.23
7 21 0.51 0.26
7 22 0.5 0.28
7 23 0.4 0.3
7 24 0.22 0.06
7 25 0.52 0.12
7 26 0.48 0.21
7 27 0.52 0.16
7 28 0.69 0.22
7 29 0.54 0.24
7 30 0.74 0.22
7 31 0.5 0.19
7 32 0.68 0.24
7 33 0.64 0.25
7 34 0.62 0.24
7 35 0.48 0.21
7 36 0.56 0.28
7 37 0.6 0.24
7 38 0.64 0.23
7 39 0.82 0.17
7 40 0.71 0.31
7 41 0.48 0.12
7 42 0.72 0.3
7 43 0.75 0.22
7 44 0.38 0.18
7 45 0.61 0.23
7 46 0.58 0.22
7 47 0.79 0.22
7 48 0.7 0.29
7 49 0.58 0.12
8 9 0.44 0.1
8 10 0.68 0.23
8 11 0.56 0.18
8 12 0.5 0.22
8 13 0.65 0.2
8 14 0.67 0.23
8 15 0.52 0.14
8 16 0.6 0.22
8 17 0.28 0.1
8 18 0.42 0.2
8 19 0.51 0.2
8 20 0.52 0.2
8 21 0.7 0.18
8 22 0.72 0.1
8 23 0.75 0.21
8 24 0.5 0.22
8 25 0.65 0.25
8 26 0.6 0.13
8 27 0.41 0.21
8 28 0.58 0.22
8 29 0.53 0.29
8 30 0.56 0.29
8 31 0.44 0.27
8 32 0.67 0.25
8 33 0.79 0.27
8 34 0.73 0.2
8 35 0.47 0.26
8 36 0.51 0.29
8 37 0.52 0.26
8 38 0.62 0.19
8 39 0.56 0.19
8 40 0.66 0.29
8 41 0.58 0.25
8 42 0.75 0.12
8 43 0.44 0.04
8 44 0.54 0.17
8 45 0.56 0.27
8 46 0.56 0.18
8 47 0.33 0.28
8 48 0.48 0.28
8 49 0.22 0.17
9 10 0.56 0.26
9 11 0.36 0.26
9 12 0.42 0.2
9 13 0.48 0.2
9 14 0.68 0.13
9 15 0.75 0.14
9 16 0.57 0.24
9 17 0.54 0.19
9 18 0.56 0.17
9 19 0.7 0.2
9 20 0.64 0.18
9 21 0.6 0.28
9 22 0.52 0.08
9 23 0.72 0.28
9 24 0.58 0.26
9 25 0.43 0.24
9 26 0.43 0.16
9 27 0.41 0.24
9 28 0.5 0.23
9 29 0.62 0.22
9 30 0.78 0.34
9 31 0.65 0.19
9 32 0.67 0.27
9 33 0.42 0.29
9 34 0.29 0.27
9 35 0.61 0.24
9 36 0.56 0.22
9 37 0.74 0.24
9 38 0.54 0.18
9 39 0.58 0.22
9 40 0.56 0.27
9 41 0.72 0.24
9 42 0.7 0.1
9 43 0.39 0.14
9 44 0.58 0.1
9 45 0.66 0.17
9 46 0.56 0.23
9 47 0.59 0.18
9 48 0.5 0.18
9 49 0.22 0.2
10 11 0.62 0.23
10 12 0.58 0.12
10 13 0.71 0.12
10 14 0.72 0.2
10 15 0.44 0.18
10 16 0.42 0.28
10 17 0.5 0.22
10 18 0.28 0.2
10 19 0.72 0.24
10 20 0.48 0.28
10 21 0.32 0.14
10 22 0.56 0.27
10 23 0.44 0.32
10 24 0.6 0.12
10 25 0.69 0.16
10 26 0.5 0.2
10 27 0.65 0.1
10 28 0.5 0.16
10 29 0.59 0.2
10 30 0.67 0.26
10 31 0.74 0.32
10 32 0.5 0.1
10 33 0.67 0.2
10 34 0.38 0.18
10 35 0.65 0.24
10 36 0.76 0.28
10 37 0.47 0.14
10 38 0.54 0.24
10 39 0.48 0.22
10 40 0.32 0.22
10 41 0.76 0.16
10 42 0.58 0.28
10 43 0.66 0.27
10 44 0.53 0.24
10 45 0.56 0.24
10 46 0.65 0.18
10 47 0.72 0.28
10 48 0.72 0.23
10 49 0.46 0.06
11 12 0.71 0.14
11 13 0.59 0.21
11 14 0.38 0.22
11 15 0.74 0.15
11 16 0.58 0.26
11 17 0.59 0.1
11 18 0.64 0.23
11 19 0.63 0.21
11 20 0.75 0.25
11 21 0.62 0.24
11 22 0.37 0.22
11 23 0.59 0.2
11 24 0.36 0.16
11 25 0.5 0.1
11 26 0.6 0.13
11 27 0.64 0.24
11 28 0.44 0.22
11 29 0.51 0.16
11 30 0.7 0.2
11 31 0.65 0.24
11 32 0.6 0.18
11 33 0.48 0.28
11 34 0.46 0.14
11 35 0.57 0.12
11 36 0.47 0.28
11 37 0.78 0.22
11 38 0.5 0.24
11 39 0.79 0.19
11 40 0.66 0.3
11 41 0.43 0.1
11 42 0.59 0.24
11 43 0.64 0.16
11 44 0.52 0.16
11 45 0.73 0.26
11 46 0.62 0.2
11 47 0.36 0.17
11 48 0.78 0.27
11 49 0.58 0.22
12 13 0.74 0.15
12 14 0.46 0.08
12 15 0.33 0.21
12 16 0.38 0.18
12 17 0.6 0.19
12 18 0.69 0.2
12 19 0.37 0.24
12 20 0.69 0.2
12 21 0.46 0.22
12 22 0.62 0.21
12 23 0.68 0.24
12 24 0.36 0.1
12 25 0.44 0.04
12 26 0.47 0.22
12 27 0.7 0.16
12 28 0.28 0.18
12 29 0.2 0.08
12 30 0.59 0.14
12 31 0.52 0.21
12 32 0.35 0.19
12 33 0.52 0.31
12 34 0.61 0.18
12 35 0.26 0.12
12 36 0.69 0.31
12 37 0.63 0.18
12 38 0.4 0.2
12 39 0.68 0.21
12 40 0.48 0.28
12 41 0.3 0.04
12 42 0.65 0.23
12 43 0.48 0.21
12 44 0.66 0.2
12 45 0.61 0.12
12 46 0.44 0.06
12 47 0.61 0.2
12 48 0.48 0.13
12 49 0.62 0.12
13 14 0.73 0.23
13 15 0.53 0.06
13 16 0.42 0.31
13 17 0.7 0.11
13 18 0.54 0.18
13 19 0.44 0.12
13 20 0.48 0.18
13 21 0.68 0.23
13 22 0.64 0.15
13 23 0.68 0.2
13 24 0.5 0.14
13 25 0.4 0.11
13 26 0.6 0.08
13 27 0.24 0.22
13 28 0.51 0.18
13 29 0.64 0.23
13 30 0.66 0.21
13 31 0.68 0.24
13 32 0.6 0.19
13 33 0.44 0.26
13 34 0.56 0.19
13 35 0.58 0.25
13 36 0.59 0.27
13 37 0.6 0.23
13 38 0.56 0.22
13 39 0.87 0.12
13 40 0.71 0.22
13 41 0.48 0.11
13 42 0.5 0.17
13 43 0.71 0.16
13 44 0.66 0.24
13 45 0.51 0.21
13 46 0.39 0.21
13 47 0.85 0.29
13 48 0.56 0.24
13 49 0.43 0.18
14 15 0.47 0.22
14 16 0.57 0.26
14 17 0.58 0.24
14 18 0.66 0.26
14 19 0.39 0.16
14 20 0.43 0.22
14 21 0.4 0.15
14 22 0.6 0.2
14 23 0.68 0.28
14 24 0.55 0.18
14 25 0.66 0.12
14 26 0.44 0.22
14 27 0.75 0.16
14 28 0.22 0.1
14 29 0.42 0.16
14 30 0.7 0.22
14 31 0.68 0.28
14 32 0.64 0.23
14 33 0.67 0.24
14 34 0.54 0.18
14 35 0.48 0.16
14 36 0.43 0.26
14 37 0.77 0.24
14 38 0.6 0.14
14 39 0.52 0.16
14 40 0.56 0.2
14 41 0.48 0.12
14 42 0.7 0.18
14 43 0.42 0.26
14 44 0.85 0.22
14 45 0.52 0.04
14 46 0.52 0.14
14 47 0.34 0.24
14 48 0.56 0.21
14 49 0.56 0.2
15 16 0.58 0.25
15 17 0.28 0.05
15 18 0.62 0.12
15 19 0.34 0.06
15 20 0.66 0.14
15 21 0.41 0.19
15 22 0.44 0.09
15 23 0.42 0.14
15 24 0.62 0.17
15 25 0.36 0.17
15 26 0.64 0.02
15 27 0.72 0.18
15 28 0.59 0.14
15 29 0.45 0.23
15 30 0.56 0.22
15 31 0.41 0.18
15 32 0.62 0.2
15 33 0.59 0.2
15 34 0.54 0.13
15 35 0.51 0.19
15 36 0.85 0.21
15 37 0.56 0.24
15 38 0.59 0.24
15 39 0.5 0.08
15 40 0.24 0.16
15 41 0.46 0.17
15 42 0.77 0.11
15 43 0.44 0.1
15 44 0.38 0.19
15 45 0.62 0.18
15 46 0.58 0.22
15 47 0.58 0.25
15 48 0.7 0.27
15 49 0.53 0.22
16 17 0.54 0.23
16 18 0.7 0.29
16 19 0.72 0.3
16 20 0.76 0.26
16 21 0.68 0.28
16 22 0.84 0.16
16 23 0.66 0.14
16 24 0.36 0.18
16 25 0.64 0.22
16 26 0.62 0.26
16 27 0.48 0.28
16 28 0.66 0.28
16 29 0.56 0.1
16 30 0.67 0.32
16 31 0.74 0.23
16 32 0.47 0.32
16 33 0.51 0.34
16 34 0.52 0.2
16 35 0.62 0.14
16 36 0.44 0.34
16 37 0.54 0.28
16 38 0.6 0.22
16 39 0.65 0.29
16 40 0.44 0.25
16 41 0.68 0.22
16 42 0.44 0.14
16 43 0.7 0.18
16 44 0.8 0.22
16 45 0.44 0.24
16 46 0.81 0.12
16 47 0.64 0.24
16 48 0.62 0.29
16 49 0.54 0.24
17 18 0.66 0.13
17 19 0.62 0.11
17 20 0.59 0.15
17 21 0.54 0.19
17 22 0.52 0.12
17 23 0.56 0.19
17 24 0.38 0.12
17 25 0.64 0.15
17 26 0.48 0.03
17 27 0.69 0.2
17 28 0.36 0.14
17 29 0.54 0.24
17 30 0.55 0.23
17 31 0.58 0.19
17 32 0.5 0.15
17 33 0.73 0.2
17 34 0.52 0.14
17 35 0.6 0.2
17 36 0.65 0.25
17 37 0.72 0.19
17 38 0.34 0.21
17 39 0.48 0.09
17 40 0.38 0.21
17 41 0.3 0.15
17 42 0.77 0.14
17 43 0.16 0.06
17 44 0.46 0.2
17 45 0.76 0.23
17 46 0.5 0.21
17 47 0.61 0.26
17 48 0.58 0.24
17 49 0.5 0.18
18 19 0.61 0.18
18 20 0.52 0.16
18 21 0.6 0.27
18 22 0.76 0.17
18 23 0.66 0.24
18 24 0.48 0.2
18 25 0.54 0.2
18 26 0.22 0.1
18 27 0.72 0.22
18 28 0.6 0.22
18 29 0.5 0.19
18 30 0.64 0.3
18 31 0.69 0.26
18 32 0.74 0.1
18 33 0.56 0.24
18 34 0.36 0.21
18 35 0.44 0.23
18 36 0.65 0.19
18 37 0.72 0.14
18 38 0.65 0.12
18 39 0.56 0.16
18 40 0.6 0.28
18 41 0.73 0.2
18 42 0.63 0.19
18 43 0.5 0.16
18 44 0.64 0.07
18 45 0.62 0.3
18 46 0.4 0.22
18 47 0.61 0.27
18 48 0.65 0.24
18 49 0.64 0.26
19 20 0.6 0.13
19 21 0.61 0.14
19 22 0.49 0.15
19 23 0.66 0.2
19 24 0.67 0.18
19 25 0.52 0.22
19 26 0.39 0.08
19 27 0.58 0.23
19 28 0.51 0.19
19 29 0.39 0.2
19 30 0.82 0.28
19 31 0.41 0.18
19 32 0.28 0.2
19 33 0.28 0.14
19 34 0.53 0.19
19 35 0.45 0.24
19 36 0.62 0.27
19 37 0.54 0.2
19 38 0.34 0.26
19 39 0.76 0.14
19 40 0.58 0.22
19 41 0.67 0.22
19 42 0.43 0.17
19 43 0.52 0.16
19 44 0.46 0.24
19 45 0.28 0.12
19 46 0.64 0.24
19 47 0.54 0.24
19 48 0.75 0.33
19 49 0.53 0.2
20 21 0.76 0.17
20 22 0.47 0.1
20 23 0.9 0.22
20 24 0.55 0.17
20 25 0.61 0.23
20 26 0.68 0.12
20 27 0.67 0.18
20 28 0.62 0.12
20 29 0.49 0.28
20 30 0.66 0.32
20 31 0.75 0.2
20 32 0.4 0.19
20 33 0.64 0.22
20 34 0.76 0.2
20 35 0.55 0.26
20 36 0.76 0.23
20 37 0.76 0.23
20 38 0.4 0.26
20 39 0.49 0.06
20 40 0.72 0.2
20 41 0.66 0.23
20 42 0.56 0.12
20 43 0.5 0.16
20 44 0.54 0.2
20 45 0.78 0.25
20 46 0.46 0.25
20 47 0.62 0.11
20 48 0.76 0.28
20 49 0.56 0.22
21 22 0.46 0.2
21 23 0.48 0.24
21 24 0.68 0.2
21 25 0.48 0.26
21 26 0.38 0.17
21 27 0.67 0.11
21 28 0.18 0.05
21 29 0.58 0.2
21 30 0.35 0.31
21 31 0.62 0.24
21 32 0.68 0.18
21 33 0.66 0.23
21 34 0.52 0.1
21 35 0.64 0.16
21 36 0.44 0.16
21 37 0.77 0.14
21 38 0.52 0.25
21 39 0.58 0.11
21 40 0.32 0.25
21 41 0.52 0.26
21 42 0.64 0.22
21 43 0.38 0.14
21 44 0.77 0.28
21 45 0.65 0.19
21 46 0.33 0.16
21 47 0.44 0.24
21 48 0.52 0.25
21 49 0.48 0.15
22 23 0.6 0.23
22 24 0.48 0.24
22 25 0.62 0.21
22 26 0.58 0.11
22 27 0.69 0.24
22 28 0.38 0.22
22 29 0.64 0.2
22 30 0.33 0.28
22 31 0.43 0.17
22 32 0.7 0.2
22 33 0.63 0.29
22 34 0.44 0.22
22 35 0.7 0.16
22 36 0.75 0.22
22 37 0.52 0.16
22 38 0.54 0.18
22 39 0.76 0.16
22 40 0.68 0.19
22 41 0.62 0.21
22 42 0.73 0.02
22 43 0.36 0.06
22 44 0.76 0.1
22 45 0.43 0.17
22 46 0.39 0.15
22 47 0.46 0.2
22 48 0.72 0.18
22 49 0.5 0.25
23 24 0.62 0.27
23 25 0.44 0.26
23 26 0.5 0.16
23 27 0.71 0.24
23 28 0.46 0.22
23 29 0.6 0.16
23 30 0.66 0.36
23 31 0.53 0.24
23 32 0.54 0.29
23 33 0.48 0.34
23 34 0.57 0.14
23 35 0.62 0.12
23 36 0.72 0.22
23 37 0.74 0.32
23 38 0.52 0.27
23 39 0.45 0.16
23 40 0.64 0.23
23 41 0.63 0.26
23 42 0.81 0.25
23 43 0.66 0.24
23 44 0.69 0.28
23 45 0.55 0.32
23 46 0.56 0.26
23 47 0.7 0.28
23 48 0.62 0.29
23 49 0.6 0.28
24 25 0.3 0.06
24 26 0.5 0.15
24 27 0.45 0.1
24 28 0.5 0.16
24 29 0.38 0.18
24 30 0.52 0.16
24 31 0.59 0.24
24 32 0.46 0.21
24 33 0.52 0.27
24 34 0.46 0.21
24 35 0.32 0.15
24 36 0.78 0.22
24 37 0.74 0.18
24 38 0.56 0.17
24 39 0.66 0.11
24 40 0.49 0.25
24 41 0.64 0.06
24 42 0.62 0.26
24 43 0.54 0.18
24 44 0.52 0.24
24 45 0.66 0.17
24 46 0.63 0.16
24 47 0.59 0.16
24 48 0.48 0.23
24 49 0.6 0.06
25 26 0.63 0.18
25 27 0.6 0.16
25 28 0.66 0.22
25 29 0.24 0.12
25 30 0.57 0.1
25 31 0.48 0.25
25 32 0.5 0.15
25 33 0.53 0.3
25 34 0.71 0.21
25 35 0.18 0.15
25 36 0.55 0.27
25 37 0.68 0.14
25 38 0.44 0.18
25 39 0.66 0.17
25 40 0.6 0.27
25 41 0.54 0.0
25 42 0.55 0.23
25 43 0.62 0.21
25 44 0.64 0.2
25 45 0.79 0.16
25 46 0.49 0.1
25 47 0.48 0.22
25 48 0.6 0.17
25 49 0.48 0.12
26 27 0.75 0.18
26 28 0.52 0.12
26 29 0.51 0.21
26 30 0.54 0.2
26 31 0.58 0.16
26 32 0.52 0.18
26 33 0.34 0.22
26 34 0.14 0.11
26 35 0.45 0.17
26 36 0.66 0.22
26 37 0.63 0.22
26 38 0.5 0.22
26 39 0.46 0.06
26 40 0.53 0.18
26 41 0.6 0.18
26 42 0.41 0.13
26 43 0.32 0.09
26 44 0.8 0.17
26 45 0.4 0.2
26 46 0.62 0.24
26 47 0.39 0.23
26 48 0.43 0.27
26 49 0.65 0.21
27 28 0.66 0.06
27 29 0.63 0.2
27 30 0.73 0.2
27 31 0.62 0.23
27 32 0.52 0.12
27 33 0.6 0.3
27 34 0.7 0.14
27 35 0.69 0.16
27 36 0.59 0.18
27 37 0.39 0.08
27 38 0.44 0.26
27 39 0.78 0.12
27 40 0.6 0.26
27 41 0.72 0.16
27 42 0.46 0.22
27 43 0.62 0.24
27 44 0.59 0.26
27 45 0.53 0.2
27 46 0.38 0.22
27 47 0.61 0.25
27 48 0.32 0.21
27 49 0.19 0.04
28 29 0.48 0.18
28 30 0.48 0.26
28 31 0.46 0.22
28 32 0.54 0.13
28 33 0.56 0.28
28 34 0.52 0.08
28 35 0.54 0.14
28 36 0.62 0.21
28 37 0.64 0.14
28 38 0.38 0.2
28 39 0.68 0.06
28 40 0.5 0.2
28 41 0.58 0.22
28 42 0.48 0.24
28 43 0.2 0.18
28 44 0.68 0.28
28 45 0.47 0.14
28 46 0.44 0.2
28 47 0.44 0.19
28 48 0.34 0.2
28 49 0.54 0.1
29 30 0.64 0.22
29 31 0.32 0.16
29 32 0.36 0.25
29 33 0.62 0.24
29 34 0.59 0.1
29 35 0.06 0.04
29 36 0.53 0.24
29 37 0.56 0.24
29 38 0.2 0.12
29 39 0.58 0.24
29 40 0.48 0.22
29 41 0.45 0.12
29 42 0.75 0.18
29 43 0.38 0.26
29 44 0.54 0.12
29 45 0.62 0.2
29 46 0.25 0.14
29 47 0.41 0.26
29 48 0.68 0.19
29 49 0.61 0.2
30 31 0.58 0.35
30 32 0.64 0.25
30 33 0.74 0.4
30 34 0.62 0.31
30 35 0.68 0.25
30 36 0.71 0.36
30 37 0.85 0.24
30 38 0.5 0.28
30 39 0.74 0.26
30 40 0.64 0.25
30 41 0.8 0.1
30 42 0.58 0.3
30 43 0.39 0.29
30 44 0.58 0.3
30 45 0.57 0.26
30 46 0.68 0.2
30 47 0.52 0.32
30 48 0.82 0.27
30 49 0.67 0.22
31 32 0.68 0.29
31 33 0.59 0.18
31 34 0.44 0.14
31 35 0.38 0.12
31 36 0.61 0.22
31 37 0.77 0.3
31 38 0.52 0.28
31 39 0.77 0.22
31 40 0.65 0.14
31 41 0.58 0.25
31 42 0.56 0.19
31 43 0.5 0.23
31 44 0.72 0.2
31 45 0.69 0.3
31 46 0.29 0.24
31 47 0.73 0.1
31 48 0.48 0.29
31 49 0.64 0.26
32 33 0.56 0.26
32 34 0.38 0.2
32 35 0.42 0.21
32 36 0.72 0.29
32 37 0.51 0.04
32 38 0.16 0.14
32 39 0.48 0.19
32 40 0.74 0.3
32 41 0.6 0.15
32 42 0.58 0.18
32 43 0.34 0.21
32 44 0.58 0.17
32 45 0.56 0.27
32 46 0.61 0.25
32 47 0.77 0.3
32 48 0.48 0.23
32 49 0.45 0.16
33 34 0.48 0.32
33 35 0.56 0.28
33 36 0.62 0.23
33 37 0.54 0.3
33 38 0.62 0.12
33 39 0.58 0.28
33 40 0.35 0.2
33 41 0.82 0.3
33 42 0.58 0.31
33 43 0.66 0.26
33 44 0.74 0.2
33 45 0.56 0.26
33 46 0.4 0.25
33 47 0.5 0.11
33 48 0.77 0.4
33 49 0.64 0.26
34 35 0.53 0.06
34 36 0.57 0.15
34 37 0.49 0.22
34 38 0.54 0.21
34 39 0.44 0.14
34 40 0.56 0.24
34 41 0.46 0.21
34 42 0.55 0.2
34 43 0.46 0.2
34 44 0.82 0.22
34 45 0.54 0.22
34 46 0.73 0.24
34 47 0.53 0.24
34 48 0.46 0.17
34 49 0.51 0.18
35 36 0.59 0.21
35 37 0.5 0.2
35 38 0.26 0.16
35 39 0.52 0.2
35 40 0.42 0.18
35 41 0.51 0.15
35 42 0.72 0.14
35 43 0.44 0.22
35 44 0.48 0.16
35 45 0.68 0.2
35 46 0.31 0.18
35 47 0.47 0.22
35 48 0.74 0.23
35 49 0.66 0.2
36 37 0.84 0.26
36 38 0.6 0.2
36 39 0.53 0.26
36 40 0.64 0.36
36 41 0.68 0.27
36 42 0.84 0.24
36 43 0.6 0.28
36 44 0.64 0.12
36 45 0.56 0.22
36 46 0.6 0.26
36 47 0.72 0.12
36 48 0.52 0.32
36 49 0.68 0.22
37 38 0.67 0.18
37 39 0.76 0.2
37 40 0.79 0.34
37 41 0.83 0.14
37 42 0.82 0.14
37 43 0.56 0.22
37 44 0.48 0.21
37 45 0.82 0.28
37 46 0.76 0.24
37 47 0.71 0.33
37 48 0.7 0.27
37 49 0.58 0.12
38 39 0.52 0.26
38 40 0.66 0.16
38 41 0.64 0.18
38 42 0.74 0.2
38 43 0.18 0.15
38 44 0.42 0.08
38 45 0.42 0.18
38 46 0.45 0.23
38 47 0.61 0.23
38 48 0.64 0.28
38 49 0.41 0.23
39 40 0.26 0.14
39 41 0.58 0.17
39 42 0.48 0.18
39 43 0.64 0.15
39 44 0.7 0.23
39 45 0.57 0.2
39 46 0.48 0.26
39 47 0.56 0.17
39 48 0.59 0.26
39 49 0.6 0.16
40 41 0.56 0.27
40 42 0.56 0.21
40 43 0.54 0.25
40 44 0.62 0.24
40 45 0.58 0.16
40 46 0.65 0.28
40 47 0.76 0.24
40 48 0.54 0.37
40 49 0.77 0.28
41 42 0.86 0.23
41 43 0.46 0.21
41 44 0.44 0.2
41 45 0.74 0.16
41 46 0.46 0.1
41 47 0.58 0.22
41 48 0.76 0.17
41 49 0.69 0.12
42 43 0.68 0.08
42 44 0.56 0.12
42 45 0.7 0.15
42 46 0.54 0.17
42 47 0.42 0.22
42 48 0.54 0.2
42 49 0.65 0.26
43 44 0.6 0.16
43 45 0.6 0.23
43 46 0.34 0.15
43 47 0.6 0.26
43 48 0.46 0.24
43 49 0.59 0.21
44 45 0.64 0.26
44 46 0.48 0.15
44 47 0.51 0.22
44 48 0.74 0.2
44 49 0.76 0.27
45 46 0.52 0.12
45 47 0.48 0.26
45 48 0.54 0.25
45 49 0.62 0.23
46 47 0.66 0.14
46 48 0.63 0.19
46 49 0.57 0.18
47 48 0.45 0.3
47 49 0.55 0.22
48 49 0.51 0.17
